## Edge Dislocation Molecular Dynamics Study
# Ethan L. Edmunds, Dec 2024

# EAM Potential: L. Proville, D. Rodney, and M.-C. Marinica (2012), "Quantum effect on thermally activated glide of dislocations", Nature Materials, 11(10), 845-849. DOI: 10.1038/nmat3401.

# Clear previous data in Dump Folder
shell del /q dump\*

# Set the units
units metal
atom_style atomic

# Set boundary conditions to be periodic in all axes
boundary p p p

# Get lammps to creat bcc lattice
# Default orientation: [100], [010], and [001] directions along the x, y, and z axes respectively
lattice bcc 2.866
region box block 0 5 0 10 0 20
create_box 1 box
create_atoms 1 box

# Select EAM potential to use
pair_style eam/fs
pair_coeff * * MCM2011_eam.fs Fe

# Methodology, inspired by:
# "Atomistic simulations of dislocation mobility in refractory high-entropy alloys and the effect of chemical short-range order"
# "Learning dislocation dynamics mobility laws from large-scale MD simulations"
# "Probing the limits of metal plasticity with molecular dynamics simulations"

print "Simulation Started"

# SETTINGS
compute csym all centro/atom bcc
compute peratom all pe/atom 

# Thermalisation
# Equilibrate the system at 300 K using the Langevin thermostat
timestep 0.001 # Timestep of 1 femto second

# Initialise all the atoms with a velocity distribution corresponding to a 300K
velocity all create 300.0 4928459 mom yes rot yes dist gaussian

# Use a nose-hoover thermostat to maintain a target temperature (300k) and a barostat to regulate the pressure
# Look up this commant to understand the thermostat and barostat used
fix	1 all npt temp 300.0 300.0 $(100.0*dt) iso 0.0 0.0 $(1000.0*dt)

# set output options for atom level data
dump 1 all custom 500 dump/dumpFile.* id type id type x y z vx vy vz c_csym c_peratom fx fy fz # Dump atomic data (ID, type, positions, velocities, stress, and forces) every 500 timesteps into files named dumpFile.* in the dump folder.

# Set output options for lammps logfile, including frequency of data output
thermo_style custom step dt time temp press ke pe etotal
thermo 100

run 50000  # Run for 20000 timesteps for equilibration
unfix 1
undump 1

# Store final cell length for strain calculations
variable tmp equal "lz"
variable L0 equal ${tmp}

print "System Thermalised"

reset_timestep 0 

# fix 1 all nph temp 300 300 10 x 0 0 1 y 0 0 1 drag 1 # apply the NPH ensemble to control the system's temperature at 300 K and pressure in the x and y directions with a relaxation time of 1 timestep, while also applying a drag coefficient of 1 for viscous damping

fix 2 all langevin 300 300 10 123456 # Apply the Langevin thermostat for constant temperature during deformation

fix 3 all deform 1 z erate 1e-3 units box # applies a deformation fix to the system, deforming the simulation box along the x-axis at a strain rate of ${srate1} (which is a variable), using box units for the deformation and remapping the atom positions in the x-direction to reflect the deformation.

# Calculate the strain in the z-direction based on the initial and current box lengths (Lz) for the units "metal"
variable strain equal "(lz - v_L0)/v_L0"

# Assign the variable p1 to the value of the strain variable calculated above
variable p1 equal "v_strain"

# Assign p2, p3, and p4 to the negative values of the stress components (pxx, pyy, pzz) divided by 10000 to convert to appropriate units
variable p2 equal "-pxx/10000"
variable p3 equal "-pyy/10000"
variable p4 equal "-pzz/10000"

# Print the strain and stress components (p1, p2, p3, p4) to a file every 100 timesteps
# The output is written to the file "Fe_single_crystal_strain_stress_output.txt" and not to the screen
fix def1 all print 250 "${p1} ${p2} ${p3} ${p4}" file stress_strain.txt screen no

# Store the boxlength as variables
variable box_step equal "step"
variable box_x equal "lx"
variable box_y equal "ly"
variable box_z equal "lz"

# Print the box size as to a file "box_size"
fix def2 all print 250 "${box_step} ${box_x} ${box_y} ${box_z}" file box_info.txt screen no

# Dump files
dump 1 all custom 250 dump/dumpFile.* id type x y z vx vy vz c_csym c_peratom fx fy fz # Dump atomic data (ID, type, positions, velocities, stress, and forces) every 250 timesteps into files named dumpFile.* in the dump folder.

# Display thermo
thermo  250
thermo_style custom step v_strain temp v_p2 v_p3 v_p4 ke pe press

run 200000 # Run for 2000000 iterations

print "Simulation Executed..."

# "mpiexec -np 2 lmp -in edge_dislocation_tension.lmp"
# "lmp -in edge_dislocation_tension.lmp"